39 40
25 5 2
5 26 1
30 8 1
15 30 1
34 34 1
25 21 1
30 20 1
22 27 1
20 15 1
20 3 1
30 22 1
34 10 1
29 22 1
22 19 1
33 8 1
23 9 1
34 18 1
16 8 1
1 33 1
30 19 1
19 9 1
33 23 1
11 22 1
6 13 1
16 16 1
11 27 1
13 19 1
17 11 1
31 34 1
5 27 1
4 8 1
1 9 1
16 2 1
10 7 1
25 20 1
11 14 1
35 8 1
34 33 1
26 28 1
40 40 
40 40 
40 40 
40 40 
40 40 
40 40 
40 40 
40 40 
40 40 
40 40 
40 40 
40 40 
40 40 
40 40 
40 40 
40 40 
40 40 
40 40 
40 40 
40 40 
40 40 
40 40 
40 40 
40 40 
40 40 
40 40 
40 40 
40 40 
40 40 
40 40 
40 40 
40 40 
40 40 
40 40 
40 40 
40 40 
40 40 
40 40 
40 40 
40 40 
